GAMMA         0    0    0  258  2.0-8.00 8.00    k-list generated by XCrySDen
              3    0    0  258  2.0
              6    0    0  258  2.0
              9    0    0  258  2.0
             12    0    0  258  2.0
             15    0    0  258  2.0
             18    0    0  258  2.0
             21    0    0  258  2.0
             24    0    0  258  2.0
             27    0    0  258  2.0
             30    0    0  258  2.0
             33    0    0  258  2.0
             36    0    0  258  2.0
             39    0    0  258  2.0
             42    0    0  258  2.0
             45    0    0  258  2.0
             48    0    0  258  2.0
             51    0    0  258  2.0
             54    0    0  258  2.0
             57    0    0  258  2.0
             60    0    0  258  2.0
             63    0    0  258  2.0
             66    0    0  258  2.0
             69    0    0  258  2.0
             72    0    0  258  2.0
             75    0    0  258  2.0
             78    0    0  258  2.0
             81    0    0  258  2.0
             84    0    0  258  2.0
             87    0    0  258  2.0
             90    0    0  258  2.0
             93    0    0  258  2.0
             96    0    0  258  2.0
             99    0    0  258  2.0
            102    0    0  258  2.0
            105    0    0  258  2.0
            108    0    0  258  2.0
            111    0    0  258  2.0
            114    0    0  258  2.0
            117    0    0  258  2.0
            120    0    0  258  2.0
            123    0    0  258  2.0
            126    0    0  258  2.0
M            75    0    0  150  2.0
             74    2    0  150  2.0
             73    4    0  150  2.0
             72    6    0  150  2.0
             71    8    0  150  2.0
             70   10    0  150  2.0
             69   12    0  150  2.0
             68   14    0  150  2.0
             67   16    0  150  2.0
             66   18    0  150  2.0
             65   20    0  150  2.0
             64   22    0  150  2.0
             63   24    0  150  2.0
             62   26    0  150  2.0
             61   28    0  150  2.0
             60   30    0  150  2.0
             59   32    0  150  2.0
             58   34    0  150  2.0
             57   36    0  150  2.0
             56   38    0  150  2.0
             55   40    0  150  2.0
             54   42    0  150  2.0
             53   44    0  150  2.0
             52   46    0  150  2.0
             51   48    0  150  2.0
K           100  100    0  300  2.0
             98   98    0  300  2.0
             96   96    0  300  2.0
             94   94    0  300  2.0
             92   92    0  300  2.0
             90   90    0  300  2.0
             88   88    0  300  2.0
             86   86    0  300  2.0
             84   84    0  300  2.0
             82   82    0  300  2.0
             80   80    0  300  2.0
             78   78    0  300  2.0
             76   76    0  300  2.0
             74   74    0  300  2.0
             72   72    0  300  2.0
             70   70    0  300  2.0
             68   68    0  300  2.0
             66   66    0  300  2.0
             64   64    0  300  2.0
             62   62    0  300  2.0
             60   60    0  300  2.0
             58   58    0  300  2.0
             56   56    0  300  2.0
             54   54    0  300  2.0
             52   52    0  300  2.0
             50   50    0  300  2.0
             48   48    0  300  2.0
             46   46    0  300  2.0
             44   44    0  300  2.0
             42   42    0  300  2.0
             40   40    0  300  2.0
             38   38    0  300  2.0
             36   36    0  300  2.0
             34   34    0  300  2.0
             32   32    0  300  2.0
             30   30    0  300  2.0
             28   28    0  300  2.0
             26   26    0  300  2.0
             24   24    0  300  2.0
             22   22    0  300  2.0
             20   20    0  300  2.0
             18   18    0  300  2.0
             16   16    0  300  2.0
             14   14    0  300  2.0
             12   12    0  300  2.0
             10   10    0  300  2.0
              8    8    0  300  2.0
              6    6    0  300  2.0
              4    4    0  300  2.0
              2    2    0  300  2.0
GAMMA         0    0    0  222  2.0
              0    0    3  222  2.0
              0    0    6  222  2.0
              0    0    9  222  2.0
              0    0   12  222  2.0
              0    0   15  222  2.0
              0    0   18  222  2.0
              0    0   21  222  2.0
              0    0   24  222  2.0
              0    0   27  222  2.0
              0    0   30  222  2.0
              0    0   33  222  2.0
              0    0   36  222  2.0
              0    0   39  222  2.0
              0    0   42  222  2.0
              0    0   45  222  2.0
              0    0   48  222  2.0
              0    0   51  222  2.0
              0    0   54  222  2.0
              0    0   57  222  2.0
              0    0   60  222  2.0
              0    0   63  222  2.0
              0    0   66  222  2.0
              0    0   69  222  2.0
              0    0   72  222  2.0
              0    0   75  222  2.0
              0    0   78  222  2.0
              0    0   81  222  2.0
              0    0   84  222  2.0
              0    0   87  222  2.0
              0    0   90  222  2.0
              0    0   93  222  2.0
              0    0   96  222  2.0
              0    0   99  222  2.0
              0    0  102  222  2.0
              0    0  105  222  2.0
              0    0  108  222  2.0
A             0    0  129  258  2.0
              3    0  129  258  2.0
              6    0  129  258  2.0
              9    0  129  258  2.0
             12    0  129  258  2.0
             15    0  129  258  2.0
             18    0  129  258  2.0
             21    0  129  258  2.0
             24    0  129  258  2.0
             27    0  129  258  2.0
             30    0  129  258  2.0
             33    0  129  258  2.0
             36    0  129  258  2.0
             39    0  129  258  2.0
             42    0  129  258  2.0
             45    0  129  258  2.0
             48    0  129  258  2.0
             51    0  129  258  2.0
             54    0  129  258  2.0
             57    0  129  258  2.0
             60    0  129  258  2.0
             63    0  129  258  2.0
             66    0  129  258  2.0
             69    0  129  258  2.0
             72    0  129  258  2.0
             75    0  129  258  2.0
             78    0  129  258  2.0
             81    0  129  258  2.0
             84    0  129  258  2.0
             87    0  129  258  2.0
             90    0  129  258  2.0
             93    0  129  258  2.0
             96    0  129  258  2.0
             99    0  129  258  2.0
            102    0  129  258  2.0
            105    0  129  258  2.0
            108    0  129  258  2.0
            111    0  129  258  2.0
            114    0  129  258  2.0
            117    0  129  258  2.0
            120    0  129  258  2.0
            123    0  129  258  2.0
            126    0  129  258  2.0
L            75    0   75  150  2.0
             74    2   75  150  2.0
             73    4   75  150  2.0
             72    6   75  150  2.0
             71    8   75  150  2.0
             70   10   75  150  2.0
             69   12   75  150  2.0
             68   14   75  150  2.0
             67   16   75  150  2.0
             66   18   75  150  2.0
             65   20   75  150  2.0
             64   22   75  150  2.0
             63   24   75  150  2.0
             62   26   75  150  2.0
             61   28   75  150  2.0
             60   30   75  150  2.0
             59   32   75  150  2.0
             58   34   75  150  2.0
             57   36   75  150  2.0
             56   38   75  150  2.0
             55   40   75  150  2.0
             54   42   75  150  2.0
             53   44   75  150  2.0
             52   46   75  150  2.0
             51   48   75  150  2.0
H           100  100  150  300  2.0
             98   98  150  300  2.0
             96   96  150  300  2.0
             94   94  150  300  2.0
             92   92  150  300  2.0
             90   90  150  300  2.0
             88   88  150  300  2.0
             86   86  150  300  2.0
             84   84  150  300  2.0
             82   82  150  300  2.0
             80   80  150  300  2.0
             78   78  150  300  2.0
             76   76  150  300  2.0
             74   74  150  300  2.0
             72   72  150  300  2.0
             70   70  150  300  2.0
             68   68  150  300  2.0
             66   66  150  300  2.0
             64   64  150  300  2.0
             62   62  150  300  2.0
             60   60  150  300  2.0
             58   58  150  300  2.0
             56   56  150  300  2.0
             54   54  150  300  2.0
             52   52  150  300  2.0
             50   50  150  300  2.0
             48   48  150  300  2.0
             46   46  150  300  2.0
             44   44  150  300  2.0
             42   42  150  300  2.0
             40   40  150  300  2.0
             38   38  150  300  2.0
             36   36  150  300  2.0
             34   34  150  300  2.0
             32   32  150  300  2.0
             30   30  150  300  2.0
             28   28  150  300  2.0
             26   26  150  300  2.0
             24   24  150  300  2.0
             22   22  150  300  2.0
             20   20  150  300  2.0
             18   18  150  300  2.0
             16   16  150  300  2.0
             14   14  150  300  2.0
             12   12  150  300  2.0
             10   10  150  300  2.0
              8    8  150  300  2.0
              6    6  150  300  2.0
              4    4  150  300  2.0
              2    2  150  300  2.0
A             0    0  150  300  2.0
